/******************** OPTIMIZATION ********************/
/***** Optimization function (Exprsn. 1) *****/
MAX: Total_Biomass.finalMolecules;
/***** The Total_Biomass.finalMolecules equals the sum of the Organism.finalMolecules for each organism type (Exprsn. 2) *****/
Total_Biomass.finalMolecules = Het.finalMolecules + Aut.finalMolecules + Met.finalMolecules;
/******************** INITIALIZATION ********************/
/***** Set FiniteCompound.initialMolecules & InfiniteCompound.initialMolecules *****/
Het.initialMolecules = 0.02;
Aut.initialMolecules = 0.04;
Met.initialMolecules = 0;
DOM.initialMolecules = 0;
CH4.initialMolecules = 0;
NH4.initialMolecules = 0.05;
NO3.initialMolecules = 0;
O2.initialMolecules = 0.25;
SO4.initialMolecules = 0;
CO2.initialMolecules = 0.01;
N2.initialMolecules = 0;
HS.initialMolecules = 0.05;
Ox.initialMolecules = 0;
Hx.initialMolecules = 0;
/***** For each InfiniteCompound, remove constraints on InfiniteCompound.finalMolecules *****/
-Inf < Ox.finalMolecules < +Inf;
-Inf < Hx.finalMolecules < +Inf;
/***** For each Pool associated with an InfiniteCompound, remove constraints on Pool.finalAtoms *****/
-Inf < Ox_O.finalAtoms < +Inf;
-Inf < Hx_H.finalAtoms < +Inf;
-Inf < Ox_O.initialAtoms < +Inf;
-Inf < Hx_H.initialAtoms < +Inf;
/***** For each Process, the Process.netEnergy is unconstrained *****/
-Inf < HetAssimO.netEnergy < +Inf;
-Inf < AutAssimO.netEnergy < +Inf;
-Inf < MetAssimO.netEnergy < +Inf;
-Inf < HetAssimH.netEnergy < +Inf;
-Inf < AutAssimH.netEnergy < +Inf;
-Inf < MetAssimH.netEnergy < +Inf;
-Inf < HetAssimDOM.netEnergy < +Inf;
-Inf < AutAssimCO2.netEnergy < +Inf;
-Inf < MetAssimCH4.netEnergy < +Inf;
-Inf < HetAssimNO3.netEnergy < +Inf;
-Inf < AutAssimNO3.netEnergy < +Inf;
-Inf < MetAssimNO3.netEnergy < +Inf;
-Inf < HetAssimNH4.netEnergy < +Inf;
-Inf < AutAssimNH4.netEnergy < +Inf;
-Inf < MetAssimNH4.netEnergy < +Inf;
-Inf < HetAssimSO4.netEnergy < +Inf;
-Inf < AutAssimSO4.netEnergy < +Inf;
-Inf < MetAssimSO4.netEnergy < +Inf;
-Inf < HetAssimHS.netEnergy < +Inf;
-Inf < AutAssimHS.netEnergy < +Inf;
-Inf < MetAssimHS.netEnergy < +Inf;
-Inf < HetAerobicofBiomass.netEnergy < +Inf;
-Inf < HetAerobicofDOM.netEnergy < +Inf;
-Inf < HetDenitofBiomass.netEnergy < +Inf;
-Inf < HetDenitofDOM.netEnergy < +Inf;
-Inf < HetSulfateRedofBiomass.netEnergy < +Inf;
-Inf < HetSulfateRedofDOM.netEnergy < +Inf;
-Inf < AutSulfideOxidation.netEnergy < +Inf;
-Inf < HetMethanogenesisofBiomass.netEnergy < +Inf;
-Inf < HetMethanogenesisofDOM.netEnergy < +Inf;
-Inf < AutNitrif.netEnergy < +Inf;
-Inf < MetMethaneOxid.netEnergy < +Inf;
-Inf < HetDecay.netEnergy < +Inf;
-Inf < AutDecay.netEnergy < +Inf;
-Inf < MetDecay.netEnergy < +Inf;
/***** For each Organism type, the Organism.respirationEnergy is unconstrained *****/
-Inf < Het.respirationEnergy < +Inf;
-Inf < Aut.respirationEnergy < +Inf;
-Inf < Met.respirationEnergy < +Inf;
/******************** STOICHIOMETRY ********************/
/***** For each elemental Pool, the Pool.initialAtoms must conform to Compound stoichiometry (Exprsn. 3) *****/
Het_C.initialAtoms = 1 Het.initialMolecules;
Het_N.initialAtoms = 0.150943396226415 Het.initialMolecules;
Het_O.initialAtoms = 1.0377358490566 Het.initialMolecules;
Het_S.initialAtoms = 0.0160377358490566 Het.initialMolecules;
Het_H.initialAtoms = 2.4811320754717 Het.initialMolecules;
Aut_C.initialAtoms = 1 Aut.initialMolecules;
Aut_N.initialAtoms = 0.150943396226415 Aut.initialMolecules;
Aut_O.initialAtoms = 1.0377358490566 Aut.initialMolecules;
Aut_S.initialAtoms = 0.0160377358490566 Aut.initialMolecules;
Aut_H.initialAtoms = 2.4811320754717 Aut.initialMolecules;
Met_C.initialAtoms = 1 Met.initialMolecules;
Met_N.initialAtoms = 0.150943396226415 Met.initialMolecules;
Met_O.initialAtoms = 1.0377358490566 Met.initialMolecules;
Met_S.initialAtoms = 0.0160377358490566 Met.initialMolecules;
Met_H.initialAtoms = 2.4811320754717 Met.initialMolecules;
DOM_C.initialAtoms = 1 DOM.initialMolecules;
DOM_N.initialAtoms = 0.150943396226415 DOM.initialMolecules;
DOM_O.initialAtoms = 1.0377358490566 DOM.initialMolecules;
DOM_S.initialAtoms = 0.0160377358490566 DOM.initialMolecules;
DOM_H.initialAtoms = 2.4811320754717 DOM.initialMolecules;
CH4_C.initialAtoms = 1 CH4.initialMolecules;
CH4_H.initialAtoms = 4 CH4.initialMolecules;
NH4_N.initialAtoms = 1 NH4.initialMolecules;
NH4_H.initialAtoms = 4 NH4.initialMolecules;
NO3_N.initialAtoms = 1 NO3.initialMolecules;
NO3_O.initialAtoms = 3 NO3.initialMolecules;
O2_O.initialAtoms = 2 O2.initialMolecules;
SO4_S.initialAtoms = 1 SO4.initialMolecules;
SO4_O.initialAtoms = 4 SO4.initialMolecules;
CO2_C.initialAtoms = 1 CO2.initialMolecules;
CO2_O.initialAtoms = 2 CO2.initialMolecules;
N2_N.initialAtoms = 2 N2.initialMolecules;
HS_S.initialAtoms = 1 HS.initialMolecules;
HS_H.initialAtoms = 1 HS.initialMolecules;
Ox_O.initialAtoms = 1 Ox.initialMolecules;
Hx_H.initialAtoms = 1 Hx.initialMolecules;
/***** For each elemental Pool, the Pool.finalAtoms must conform to Compound stoichiometry (Exprsn. 4) *****/
Het_C.finalAtoms = 1 Het.finalMolecules;
Het_N.finalAtoms = 0.150943396226415 Het.finalMolecules;
Het_O.finalAtoms = 1.0377358490566 Het.finalMolecules;
Het_S.finalAtoms = 0.0160377358490566 Het.finalMolecules;
Het_H.finalAtoms = 2.4811320754717 Het.finalMolecules;
Aut_C.finalAtoms = 1 Aut.finalMolecules;
Aut_N.finalAtoms = 0.150943396226415 Aut.finalMolecules;
Aut_O.finalAtoms = 1.0377358490566 Aut.finalMolecules;
Aut_S.finalAtoms = 0.0160377358490566 Aut.finalMolecules;
Aut_H.finalAtoms = 2.4811320754717 Aut.finalMolecules;
Met_C.finalAtoms = 1 Met.finalMolecules;
Met_N.finalAtoms = 0.150943396226415 Met.finalMolecules;
Met_O.finalAtoms = 1.0377358490566 Met.finalMolecules;
Met_S.finalAtoms = 0.0160377358490566 Met.finalMolecules;
Met_H.finalAtoms = 2.4811320754717 Met.finalMolecules;
DOM_C.finalAtoms = 1 DOM.finalMolecules;
DOM_N.finalAtoms = 0.150943396226415 DOM.finalMolecules;
DOM_O.finalAtoms = 1.0377358490566 DOM.finalMolecules;
DOM_S.finalAtoms = 0.0160377358490566 DOM.finalMolecules;
DOM_H.finalAtoms = 2.4811320754717 DOM.finalMolecules;
CH4_C.finalAtoms = 1 CH4.finalMolecules;
CH4_H.finalAtoms = 4 CH4.finalMolecules;
NH4_N.finalAtoms = 1 NH4.finalMolecules;
NH4_H.finalAtoms = 4 NH4.finalMolecules;
NO3_N.finalAtoms = 1 NO3.finalMolecules;
NO3_O.finalAtoms = 3 NO3.finalMolecules;
O2_O.finalAtoms = 2 O2.finalMolecules;
SO4_S.finalAtoms = 1 SO4.finalMolecules;
SO4_O.finalAtoms = 4 SO4.finalMolecules;
CO2_C.finalAtoms = 1 CO2.finalMolecules;
CO2_O.finalAtoms = 2 CO2.finalMolecules;
N2_N.finalAtoms = 2 N2.finalMolecules;
HS_S.finalAtoms = 1 HS.finalMolecules;
HS_H.finalAtoms = 1 HS.finalMolecules;
Ox_O.finalAtoms = 1 Ox.finalMolecules;
Hx_H.finalAtoms = 1 Hx.finalMolecules;
/******************** MOLAR TRANSFER ********************/
/***** The number of atoms transferred during each Process must be in accordance with the stoichiometry and chemical affinity of the Process (Exprsn. 5) *****/
HetAssimDOM.netEnergy = -0.000432 HetAssimDOM_DOM_C_Het_C.atoms;
HetAssimDOM.netEnergy = -0.002862 HetAssimDOM_DOM_N_Het_N.atoms;
HetAssimDOM.netEnergy = -0.000416290909090909 HetAssimDOM_DOM_O_Het_O.atoms;
HetAssimDOM.netEnergy = -0.0269364705882353 HetAssimDOM_DOM_S_Het_S.atoms;
HetAssimDOM.netEnergy = -0.000174114068441065 HetAssimDOM_DOM_H_Het_H.atoms;
AutAssimCO2.netEnergy = -0.0035 AutAssimCO2_CO2_C_Aut_C.atoms;
AutAssimCO2.netEnergy = -0.00175 AutAssimCO2_CO2_O_Aut_O.atoms + -0.00175 AutAssimCO2_CO2_O_Ox_O.atoms;
MetAssimCH4.netEnergy = -0.00109 MetAssimCH4_CH4_C_Met_C.atoms;
MetAssimCH4.netEnergy = -0.0002725 MetAssimCH4_CH4_H_Met_H.atoms + -0.0002725 MetAssimCH4_CH4_H_Hx_H.atoms;
HetAssimNO3.netEnergy = -0.000155 HetAssimNO3_NO3_N_Het_N.atoms;
HetAssimNO3.netEnergy = -5.16666666666667e-05 HetAssimNO3_NO3_O_Het_O.atoms + -5.16666666666667e-05 HetAssimNO3_NO3_O_Ox_O.atoms;
AutAssimNO3.netEnergy = -0.000155 AutAssimNO3_NO3_N_Aut_N.atoms;
AutAssimNO3.netEnergy = -5.16666666666667e-05 AutAssimNO3_NO3_O_Aut_O.atoms + -5.16666666666667e-05 AutAssimNO3_NO3_O_Ox_O.atoms;
MetAssimNO3.netEnergy = -0.000155 MetAssimNO3_NO3_N_Met_N.atoms;
MetAssimNO3.netEnergy = -5.16666666666667e-05 MetAssimNO3_NO3_O_Met_O.atoms + -5.16666666666667e-05 MetAssimNO3_NO3_O_Ox_O.atoms;
HetAssimNH4.netEnergy = -3.18e-05 HetAssimNH4_NH4_N_Het_N.atoms;
HetAssimNH4.netEnergy = -7.95e-06 HetAssimNH4_NH4_H_Het_H.atoms + -7.95e-06 HetAssimNH4_NH4_H_Hx_H.atoms;
AutAssimNH4.netEnergy = -3.18e-05 AutAssimNH4_NH4_N_Aut_N.atoms;
AutAssimNH4.netEnergy = -7.95e-06 AutAssimNH4_NH4_H_Aut_H.atoms + -7.95e-06 AutAssimNH4_NH4_H_Hx_H.atoms;
MetAssimNH4.netEnergy = -3.18e-05 MetAssimNH4_NH4_N_Met_N.atoms;
MetAssimNH4.netEnergy = -7.95e-06 MetAssimNH4_NH4_H_Met_H.atoms + -7.95e-06 MetAssimNH4_NH4_H_Hx_H.atoms;
HetAssimSO4.netEnergy = -9.44e-05 HetAssimSO4_SO4_S_Het_S.atoms;
HetAssimSO4.netEnergy = -2.36e-05 HetAssimSO4_SO4_O_Het_O.atoms + -2.36e-05 HetAssimSO4_SO4_O_Ox_O.atoms;
AutAssimSO4.netEnergy = -9.44e-05 AutAssimSO4_SO4_S_Aut_S.atoms;
AutAssimSO4.netEnergy = -2.36e-05 AutAssimSO4_SO4_O_Aut_O.atoms + -2.36e-05 AutAssimSO4_SO4_O_Ox_O.atoms;
MetAssimSO4.netEnergy = -9.44e-05 MetAssimSO4_SO4_S_Met_S.atoms;
MetAssimSO4.netEnergy = -2.36e-05 MetAssimSO4_SO4_O_Met_O.atoms + -2.36e-05 MetAssimSO4_SO4_O_Ox_O.atoms;
HetAssimHS.netEnergy = -1e-07 HetAssimHS_HS_S_Het_S.atoms;
HetAssimHS.netEnergy = -1e-07 HetAssimHS_HS_H_Het_H.atoms + -1e-07 HetAssimHS_HS_H_Hx_H.atoms;
AutAssimHS.netEnergy = -1e-07 AutAssimHS_HS_S_Aut_S.atoms;
AutAssimHS.netEnergy = -1e-07 AutAssimHS_HS_H_Aut_H.atoms + -1e-07 AutAssimHS_HS_H_Hx_H.atoms;
MetAssimHS.netEnergy = -1e-07 MetAssimHS_HS_S_Met_S.atoms;
MetAssimHS.netEnergy = -1e-07 MetAssimHS_HS_H_Met_H.atoms + -1e-07 MetAssimHS_HS_H_Hx_H.atoms;
HetAerobicofBiomass.netEnergy = 0.000437 HetAerobicofBiomass_Het_C_CO2_C.atoms;
HetAerobicofBiomass.netEnergy = 0.002895125 HetAerobicofBiomass_Het_N_NH4_N.atoms;
HetAerobicofBiomass.netEnergy = 0.000421109090909091 HetAerobicofBiomass_Het_O_Ox_O.atoms;
HetAerobicofBiomass.netEnergy = 0.0272482352941176 HetAerobicofBiomass_Het_S_HS_S.atoms;
HetAerobicofBiomass.netEnergy = 0.00017612927756654 HetAerobicofBiomass_Het_H_Hx_H.atoms;
HetAerobicofBiomass.netEnergy = 0.0272482352941176 HetAerobicofBiomass_Hx_H_HS_H.atoms;
HetAerobicofBiomass.netEnergy = 0.00072378125 HetAerobicofBiomass_Hx_H_NH4_H.atoms;
HetAerobicofBiomass.netEnergy = 0.0002185 HetAerobicofBiomass_O2_O_CO2_O.atoms;
HetAerobicofDOM.netEnergy = 0.000437 HetAerobicofDOM_DOM_C_CO2_C.atoms;
HetAerobicofDOM.netEnergy = 0.002895125 HetAerobicofDOM_DOM_N_NH4_N.atoms;
HetAerobicofDOM.netEnergy = 0.000421109090909091 HetAerobicofDOM_DOM_O_Ox_O.atoms;
HetAerobicofDOM.netEnergy = 0.0272482352941176 HetAerobicofDOM_DOM_S_HS_S.atoms;
HetAerobicofDOM.netEnergy = 0.00017612927756654 HetAerobicofDOM_DOM_H_Hx_H.atoms;
HetAerobicofDOM.netEnergy = 0.0272482352941176 HetAerobicofDOM_Hx_H_HS_H.atoms;
HetAerobicofDOM.netEnergy = 0.00072378125 HetAerobicofDOM_Hx_H_NH4_H.atoms;
HetAerobicofDOM.netEnergy = 0.0002185 HetAerobicofDOM_O2_O_CO2_O.atoms;
HetDenitofBiomass.netEnergy = 0.0004102 HetDenitofBiomass_Het_C_CO2_C.atoms;
HetDenitofBiomass.netEnergy = 0.002717575 HetDenitofBiomass_Het_N_NH4_N.atoms;
HetDenitofBiomass.netEnergy = 0.000395283636363636 HetDenitofBiomass_Het_O_Ox_O.atoms;
HetDenitofBiomass.netEnergy = 0.0255771764705882 HetDenitofBiomass_Het_S_HS_S.atoms;
HetDenitofBiomass.netEnergy = 0.000165327756653992 HetDenitofBiomass_Het_H_Hx_H.atoms;
HetDenitofBiomass.netEnergy = 0.00051275 HetDenitofBiomass_NO3_N_N2_N.atoms;
HetDenitofBiomass.netEnergy = 0.0002051 HetDenitofBiomass_NO3_O_CO2_O.atoms;
HetDenitofBiomass.netEnergy = 0.0010255 HetDenitofBiomass_NO3_O_Ox_O.atoms;
HetDenitofBiomass.netEnergy = 0.00067939375 HetDenitofBiomass_Hx_H_NH4_H.atoms;
HetDenitofBiomass.netEnergy = 0.0255771764705882 HetDenitofBiomass_Hx_H_HS_H.atoms;
HetDenitofDOM.netEnergy = 0.0004102 HetDenitofDOM_DOM_C_CO2_C.atoms;
HetDenitofDOM.netEnergy = 0.002717575 HetDenitofDOM_DOM_N_NH4_N.atoms;
HetDenitofDOM.netEnergy = 0.000395283636363636 HetDenitofDOM_DOM_O_Ox_O.atoms;
HetDenitofDOM.netEnergy = 0.0255771764705882 HetDenitofDOM_DOM_S_HS_S.atoms;
HetDenitofDOM.netEnergy = 0.000165327756653992 HetDenitofDOM_DOM_H_Hx_H.atoms;
HetDenitofDOM.netEnergy = 0.00051275 HetDenitofDOM_NO3_N_N2_N.atoms;
HetDenitofDOM.netEnergy = 0.0002051 HetDenitofDOM_NO3_O_CO2_O.atoms;
HetDenitofDOM.netEnergy = 0.0010255 HetDenitofDOM_NO3_O_Ox_O.atoms;
HetDenitofDOM.netEnergy = 0.00067939375 HetDenitofDOM_Hx_H_NH4_H.atoms;
HetDenitofDOM.netEnergy = 0.0255771764705882 HetDenitofDOM_Hx_H_HS_H.atoms;
HetSulfateRedofBiomass.netEnergy = 3.8e-05 HetSulfateRedofBiomass_Het_C_CO2_C.atoms;
HetSulfateRedofBiomass.netEnergy = 0.00025175 HetSulfateRedofBiomass_Het_N_NH4_N.atoms;
HetSulfateRedofBiomass.netEnergy = 3.66181818181818e-05 HetSulfateRedofBiomass_Het_O_Ox_O.atoms;
HetSulfateRedofBiomass.netEnergy = 0.00236941176470588 HetSulfateRedofBiomass_Het_S_HS_S.atoms;
HetSulfateRedofBiomass.netEnergy = 1.53155893536122e-05 HetSulfateRedofBiomass_Het_H_Hx_H.atoms;
HetSulfateRedofBiomass.netEnergy = 6.29375e-05 HetSulfateRedofBiomass_Hx_H_NH4_H.atoms;
HetSulfateRedofBiomass.netEnergy = 7.6e-05 HetSulfateRedofBiomass_SO4_S_HS_S.atoms;
HetSulfateRedofBiomass.netEnergy = 1.9e-05 HetSulfateRedofBiomass_SO4_O_CO2_O.atoms;
HetSulfateRedofBiomass.netEnergy = 7.36380255941499e-05 HetSulfateRedofBiomass_Hx_H_HS_H.atoms;
HetSulfateRedofDOM.netEnergy = 3.8e-05 HetSulfateRedofDOM_DOM_C_CO2_C.atoms;
HetSulfateRedofDOM.netEnergy = 0.00025175 HetSulfateRedofDOM_DOM_N_NH4_N.atoms;
HetSulfateRedofDOM.netEnergy = 3.66181818181818e-05 HetSulfateRedofDOM_DOM_O_Ox_O.atoms;
HetSulfateRedofDOM.netEnergy = 0.00236941176470588 HetSulfateRedofDOM_DOM_S_HS_S.atoms;
HetSulfateRedofDOM.netEnergy = 1.53155893536122e-05 HetSulfateRedofDOM_DOM_H_Hx_H.atoms;
HetSulfateRedofDOM.netEnergy = 6.29375e-05 HetSulfateRedofDOM_Hx_H_NH4_H.atoms;
HetSulfateRedofDOM.netEnergy = 7.6e-05 HetSulfateRedofDOM_SO4_S_HS_S.atoms;
HetSulfateRedofDOM.netEnergy = 1.9e-05 HetSulfateRedofDOM_SO4_O_CO2_O.atoms;
HetSulfateRedofDOM.netEnergy = 7.36380255941499e-05 HetSulfateRedofDOM_Hx_H_HS_H.atoms;
AutSulfideOxidation.netEnergy = 0.0007966 AutSulfideOxidation_HS_H_Hx_H.atoms;
AutSulfideOxidation.netEnergy = 0.0007966 AutSulfideOxidation_HS_S_SO4_S.atoms;
AutSulfideOxidation.netEnergy = 0.00019915 AutSulfideOxidation_O2_O_SO4_O.atoms;
HetMethanogenesisofBiomass.netEnergy = 5.6e-05 HetMethanogenesisofBiomass_Het_C_CO2_C.atoms;
HetMethanogenesisofBiomass.netEnergy = 5.6e-05 HetMethanogenesisofBiomass_Het_C_CH4_C.atoms;
HetMethanogenesisofBiomass.netEnergy = 0.0001855 HetMethanogenesisofBiomass_Het_N_NH4_N.atoms;
HetMethanogenesisofBiomass.netEnergy = 2.69818181818182e-05 HetMethanogenesisofBiomass_Het_O_Ox_O.atoms;
HetMethanogenesisofBiomass.netEnergy = 0.00174588235294118 HetMethanogenesisofBiomass_Het_S_HS_S.atoms;
HetMethanogenesisofBiomass.netEnergy = 1.12851711026616e-05 HetMethanogenesisofBiomass_Het_H_Hx_H.atoms;
HetMethanogenesisofBiomass.netEnergy = 2.8e-05 HetMethanogenesisofBiomass_Ox_O_CO2_O.atoms;
HetMethanogenesisofBiomass.netEnergy = 1.4e-05 HetMethanogenesisofBiomass_Hx_H_CH4_H.atoms;
HetMethanogenesisofBiomass.netEnergy = 4.6375e-05 HetMethanogenesisofBiomass_Hx_H_NH4_H.atoms;
HetMethanogenesisofBiomass.netEnergy = 0.00174588235294118 HetMethanogenesisofBiomass_Hx_H_HS_H.atoms;
HetMethanogenesisofDOM.netEnergy = 5.6e-05 HetMethanogenesisofDOM_DOM_C_CO2_C.atoms;
HetMethanogenesisofDOM.netEnergy = 5.6e-05 HetMethanogenesisofDOM_DOM_C_CH4_C.atoms;
HetMethanogenesisofDOM.netEnergy = 0.0001855 HetMethanogenesisofDOM_DOM_N_NH4_N.atoms;
HetMethanogenesisofDOM.netEnergy = 2.69818181818182e-05 HetMethanogenesisofDOM_DOM_O_Ox_O.atoms;
HetMethanogenesisofDOM.netEnergy = 0.00174588235294118 HetMethanogenesisofDOM_DOM_S_HS_S.atoms;
HetMethanogenesisofDOM.netEnergy = 1.12851711026616e-05 HetMethanogenesisofDOM_DOM_H_Hx_H.atoms;
HetMethanogenesisofDOM.netEnergy = 2.8e-05 HetMethanogenesisofDOM_Ox_O_CO2_O.atoms;
HetMethanogenesisofDOM.netEnergy = 1.4e-05 HetMethanogenesisofDOM_Hx_H_CH4_H.atoms;
HetMethanogenesisofDOM.netEnergy = 4.6375e-05 HetMethanogenesisofDOM_Hx_H_NH4_H.atoms;
HetMethanogenesisofDOM.netEnergy = 0.00174588235294118 HetMethanogenesisofDOM_Hx_H_HS_H.atoms;
AutNitrif.netEnergy = 0.0003485 AutNitrif_NH4_N_NO3_N.atoms;
AutNitrif.netEnergy = 8.7125e-05 AutNitrif_NH4_H_Hx_H.atoms;
AutNitrif.netEnergy = 0.000116166666666667 AutNitrif_O2_O_NO3_O.atoms;
AutNitrif.netEnergy = 0.0003485 AutNitrif_O2_O_Ox_O.atoms;
MetMethaneOxid.netEnergy = 0.000818 MetMethaneOxid_CH4_C_CO2_C.atoms;
MetMethaneOxid.netEnergy = 0.0002045 MetMethaneOxid_CH4_H_Hx_H.atoms;
MetMethaneOxid.netEnergy = 0.000409 MetMethaneOxid_O2_O_CO2_O.atoms;
MetMethaneOxid.netEnergy = 0.000409 MetMethaneOxid_O2_O_Ox_O.atoms;
/******************** ELEMENTAL MOLAR BALANCE ********************/
/***** Elemental molar balance must be conserved (Exprsn. 6) *****/
Het_C.finalAtoms = Het_C.initialAtoms + HetAssimDOM_DOM_C_Het_C.atoms - HetAerobicofBiomass_Het_C_CO2_C.atoms - HetDenitofBiomass_Het_C_CO2_C.atoms - HetSulfateRedofBiomass_Het_C_CO2_C.atoms - HetMethanogenesisofBiomass_Het_C_CO2_C.atoms - HetMethanogenesisofBiomass_Het_C_CH4_C.atoms - HetDecay_Het_C_DOM_C.atoms;
Het_N.finalAtoms = Het_N.initialAtoms + HetAssimDOM_DOM_N_Het_N.atoms + HetAssimNO3_NO3_N_Het_N.atoms + HetAssimNH4_NH4_N_Het_N.atoms - HetAerobicofBiomass_Het_N_NH4_N.atoms - HetDenitofBiomass_Het_N_NH4_N.atoms - HetSulfateRedofBiomass_Het_N_NH4_N.atoms - HetMethanogenesisofBiomass_Het_N_NH4_N.atoms - HetDecay_Het_N_DOM_N.atoms;
Het_O.finalAtoms = Het_O.initialAtoms + HetAssimO_Ox_O_Het_O.atoms + HetAssimDOM_DOM_O_Het_O.atoms + HetAssimNO3_NO3_O_Het_O.atoms + HetAssimSO4_SO4_O_Het_O.atoms - HetAerobicofBiomass_Het_O_Ox_O.atoms - HetDenitofBiomass_Het_O_Ox_O.atoms - HetSulfateRedofBiomass_Het_O_Ox_O.atoms - HetMethanogenesisofBiomass_Het_O_Ox_O.atoms - HetDecay_Het_O_DOM_O.atoms;
Het_S.finalAtoms = Het_S.initialAtoms + HetAssimDOM_DOM_S_Het_S.atoms + HetAssimSO4_SO4_S_Het_S.atoms + HetAssimHS_HS_S_Het_S.atoms - HetAerobicofBiomass_Het_S_HS_S.atoms - HetDenitofBiomass_Het_S_HS_S.atoms - HetSulfateRedofBiomass_Het_S_HS_S.atoms - HetMethanogenesisofBiomass_Het_S_HS_S.atoms - HetDecay_Het_S_DOM_S.atoms;
Het_H.finalAtoms = Het_H.initialAtoms + HetAssimH_Hx_H_Het_H.atoms + HetAssimDOM_DOM_H_Het_H.atoms + HetAssimNH4_NH4_H_Het_H.atoms + HetAssimHS_HS_H_Het_H.atoms - HetAerobicofBiomass_Het_H_Hx_H.atoms - HetDenitofBiomass_Het_H_Hx_H.atoms - HetSulfateRedofBiomass_Het_H_Hx_H.atoms - HetMethanogenesisofBiomass_Het_H_Hx_H.atoms - HetDecay_Het_H_DOM_H.atoms;
Aut_C.finalAtoms = Aut_C.initialAtoms + AutAssimCO2_CO2_C_Aut_C.atoms - AutDecay_Aut_C_DOM_C.atoms;
Aut_N.finalAtoms = Aut_N.initialAtoms + AutAssimNO3_NO3_N_Aut_N.atoms + AutAssimNH4_NH4_N_Aut_N.atoms - AutDecay_Aut_N_DOM_N.atoms;
Aut_O.finalAtoms = Aut_O.initialAtoms + AutAssimO_Ox_O_Aut_O.atoms + AutAssimCO2_CO2_O_Aut_O.atoms + AutAssimNO3_NO3_O_Aut_O.atoms + AutAssimSO4_SO4_O_Aut_O.atoms - AutDecay_Aut_O_DOM_O.atoms;
Aut_S.finalAtoms = Aut_S.initialAtoms + AutAssimSO4_SO4_S_Aut_S.atoms + AutAssimHS_HS_S_Aut_S.atoms - AutDecay_Aut_S_DOM_S.atoms;
Aut_H.finalAtoms = Aut_H.initialAtoms + AutAssimH_Hx_H_Aut_H.atoms + AutAssimNH4_NH4_H_Aut_H.atoms + AutAssimHS_HS_H_Aut_H.atoms - AutDecay_Aut_H_DOM_H.atoms;
Met_C.finalAtoms = Met_C.initialAtoms + MetAssimCH4_CH4_C_Met_C.atoms - MetDecay_Met_C_DOM_C.atoms;
Met_N.finalAtoms = Met_N.initialAtoms + MetAssimNO3_NO3_N_Met_N.atoms + MetAssimNH4_NH4_N_Met_N.atoms - MetDecay_Met_N_DOM_N.atoms;
Met_O.finalAtoms = Met_O.initialAtoms + MetAssimO_Ox_O_Met_O.atoms + MetAssimNO3_NO3_O_Met_O.atoms + MetAssimSO4_SO4_O_Met_O.atoms - MetDecay_Met_O_DOM_O.atoms;
Met_S.finalAtoms = Met_S.initialAtoms + MetAssimSO4_SO4_S_Met_S.atoms + MetAssimHS_HS_S_Met_S.atoms - MetDecay_Met_S_DOM_S.atoms;
Met_H.finalAtoms = Met_H.initialAtoms + MetAssimH_Hx_H_Met_H.atoms + MetAssimCH4_CH4_H_Met_H.atoms + MetAssimNH4_NH4_H_Met_H.atoms + MetAssimHS_HS_H_Met_H.atoms - MetDecay_Met_H_DOM_H.atoms;
DOM_C.finalAtoms = DOM_C.initialAtoms + HetDecay_Het_C_DOM_C.atoms + AutDecay_Aut_C_DOM_C.atoms + MetDecay_Met_C_DOM_C.atoms - HetAssimDOM_DOM_C_Het_C.atoms - HetAerobicofDOM_DOM_C_CO2_C.atoms - HetDenitofDOM_DOM_C_CO2_C.atoms - HetSulfateRedofDOM_DOM_C_CO2_C.atoms - HetMethanogenesisofDOM_DOM_C_CO2_C.atoms - HetMethanogenesisofDOM_DOM_C_CH4_C.atoms;
DOM_N.finalAtoms = DOM_N.initialAtoms + HetDecay_Het_N_DOM_N.atoms + AutDecay_Aut_N_DOM_N.atoms + MetDecay_Met_N_DOM_N.atoms - HetAssimDOM_DOM_N_Het_N.atoms - HetAerobicofDOM_DOM_N_NH4_N.atoms - HetDenitofDOM_DOM_N_NH4_N.atoms - HetSulfateRedofDOM_DOM_N_NH4_N.atoms - HetMethanogenesisofDOM_DOM_N_NH4_N.atoms;
DOM_O.finalAtoms = DOM_O.initialAtoms + HetDecay_Het_O_DOM_O.atoms + AutDecay_Aut_O_DOM_O.atoms + MetDecay_Met_O_DOM_O.atoms - HetAssimDOM_DOM_O_Het_O.atoms - HetAerobicofDOM_DOM_O_Ox_O.atoms - HetDenitofDOM_DOM_O_Ox_O.atoms - HetSulfateRedofDOM_DOM_O_Ox_O.atoms - HetMethanogenesisofDOM_DOM_O_Ox_O.atoms;
DOM_S.finalAtoms = DOM_S.initialAtoms + HetDecay_Het_S_DOM_S.atoms + AutDecay_Aut_S_DOM_S.atoms + MetDecay_Met_S_DOM_S.atoms - HetAssimDOM_DOM_S_Het_S.atoms - HetAerobicofDOM_DOM_S_HS_S.atoms - HetDenitofDOM_DOM_S_HS_S.atoms - HetSulfateRedofDOM_DOM_S_HS_S.atoms - HetMethanogenesisofDOM_DOM_S_HS_S.atoms;
DOM_H.finalAtoms = DOM_H.initialAtoms + HetDecay_Het_H_DOM_H.atoms + AutDecay_Aut_H_DOM_H.atoms + MetDecay_Met_H_DOM_H.atoms - HetAssimDOM_DOM_H_Het_H.atoms - HetAerobicofDOM_DOM_H_Hx_H.atoms - HetDenitofDOM_DOM_H_Hx_H.atoms - HetSulfateRedofDOM_DOM_H_Hx_H.atoms - HetMethanogenesisofDOM_DOM_H_Hx_H.atoms;
CH4_C.finalAtoms = CH4_C.initialAtoms + HetMethanogenesisofBiomass_Het_C_CH4_C.atoms + HetMethanogenesisofDOM_DOM_C_CH4_C.atoms - MetAssimCH4_CH4_C_Met_C.atoms - MetMethaneOxid_CH4_C_CO2_C.atoms;
CH4_H.finalAtoms = CH4_H.initialAtoms + HetMethanogenesisofBiomass_Hx_H_CH4_H.atoms + HetMethanogenesisofDOM_Hx_H_CH4_H.atoms - MetAssimCH4_CH4_H_Met_H.atoms - MetAssimCH4_CH4_H_Hx_H.atoms - MetMethaneOxid_CH4_H_Hx_H.atoms;
NH4_N.finalAtoms = NH4_N.initialAtoms + HetAerobicofBiomass_Het_N_NH4_N.atoms + HetAerobicofDOM_DOM_N_NH4_N.atoms + HetDenitofBiomass_Het_N_NH4_N.atoms + HetDenitofDOM_DOM_N_NH4_N.atoms + HetSulfateRedofBiomass_Het_N_NH4_N.atoms + HetSulfateRedofDOM_DOM_N_NH4_N.atoms + HetMethanogenesisofBiomass_Het_N_NH4_N.atoms + HetMethanogenesisofDOM_DOM_N_NH4_N.atoms - HetAssimNH4_NH4_N_Het_N.atoms - AutAssimNH4_NH4_N_Aut_N.atoms - MetAssimNH4_NH4_N_Met_N.atoms - AutNitrif_NH4_N_NO3_N.atoms;
NH4_H.finalAtoms = NH4_H.initialAtoms + HetAerobicofBiomass_Hx_H_NH4_H.atoms + HetAerobicofDOM_Hx_H_NH4_H.atoms + HetDenitofBiomass_Hx_H_NH4_H.atoms + HetDenitofDOM_Hx_H_NH4_H.atoms + HetSulfateRedofBiomass_Hx_H_NH4_H.atoms + HetSulfateRedofDOM_Hx_H_NH4_H.atoms + HetMethanogenesisofBiomass_Hx_H_NH4_H.atoms + HetMethanogenesisofDOM_Hx_H_NH4_H.atoms - HetAssimNH4_NH4_H_Het_H.atoms - HetAssimNH4_NH4_H_Hx_H.atoms - AutAssimNH4_NH4_H_Aut_H.atoms - AutAssimNH4_NH4_H_Hx_H.atoms - MetAssimNH4_NH4_H_Met_H.atoms - MetAssimNH4_NH4_H_Hx_H.atoms - AutNitrif_NH4_H_Hx_H.atoms;
NO3_N.finalAtoms = NO3_N.initialAtoms + AutNitrif_NH4_N_NO3_N.atoms - HetAssimNO3_NO3_N_Het_N.atoms - AutAssimNO3_NO3_N_Aut_N.atoms - MetAssimNO3_NO3_N_Met_N.atoms - HetDenitofBiomass_NO3_N_N2_N.atoms - HetDenitofDOM_NO3_N_N2_N.atoms;
NO3_O.finalAtoms = NO3_O.initialAtoms + AutNitrif_O2_O_NO3_O.atoms - HetAssimNO3_NO3_O_Het_O.atoms - HetAssimNO3_NO3_O_Ox_O.atoms - AutAssimNO3_NO3_O_Aut_O.atoms - AutAssimNO3_NO3_O_Ox_O.atoms - MetAssimNO3_NO3_O_Met_O.atoms - MetAssimNO3_NO3_O_Ox_O.atoms - HetDenitofBiomass_NO3_O_CO2_O.atoms - HetDenitofBiomass_NO3_O_Ox_O.atoms - HetDenitofDOM_NO3_O_CO2_O.atoms - HetDenitofDOM_NO3_O_Ox_O.atoms;
O2_O.finalAtoms = O2_O.initialAtoms - HetAerobicofBiomass_O2_O_CO2_O.atoms - HetAerobicofDOM_O2_O_CO2_O.atoms - AutSulfideOxidation_O2_O_SO4_O.atoms - AutNitrif_O2_O_NO3_O.atoms - AutNitrif_O2_O_Ox_O.atoms - MetMethaneOxid_O2_O_CO2_O.atoms - MetMethaneOxid_O2_O_Ox_O.atoms;
SO4_S.finalAtoms = SO4_S.initialAtoms + AutSulfideOxidation_HS_S_SO4_S.atoms - HetAssimSO4_SO4_S_Het_S.atoms - AutAssimSO4_SO4_S_Aut_S.atoms - MetAssimSO4_SO4_S_Met_S.atoms - HetSulfateRedofBiomass_SO4_S_HS_S.atoms - HetSulfateRedofDOM_SO4_S_HS_S.atoms;
SO4_O.finalAtoms = SO4_O.initialAtoms + AutSulfideOxidation_O2_O_SO4_O.atoms - HetAssimSO4_SO4_O_Het_O.atoms - HetAssimSO4_SO4_O_Ox_O.atoms - AutAssimSO4_SO4_O_Aut_O.atoms - AutAssimSO4_SO4_O_Ox_O.atoms - MetAssimSO4_SO4_O_Met_O.atoms - MetAssimSO4_SO4_O_Ox_O.atoms - HetSulfateRedofBiomass_SO4_O_CO2_O.atoms - HetSulfateRedofDOM_SO4_O_CO2_O.atoms;
CO2_C.finalAtoms = CO2_C.initialAtoms + HetAerobicofBiomass_Het_C_CO2_C.atoms + HetAerobicofDOM_DOM_C_CO2_C.atoms + HetDenitofBiomass_Het_C_CO2_C.atoms + HetDenitofDOM_DOM_C_CO2_C.atoms + HetSulfateRedofBiomass_Het_C_CO2_C.atoms + HetSulfateRedofDOM_DOM_C_CO2_C.atoms + HetMethanogenesisofBiomass_Het_C_CO2_C.atoms + HetMethanogenesisofDOM_DOM_C_CO2_C.atoms + MetMethaneOxid_CH4_C_CO2_C.atoms - AutAssimCO2_CO2_C_Aut_C.atoms;
CO2_O.finalAtoms = CO2_O.initialAtoms + HetAerobicofBiomass_O2_O_CO2_O.atoms + HetAerobicofDOM_O2_O_CO2_O.atoms + HetDenitofBiomass_NO3_O_CO2_O.atoms + HetDenitofDOM_NO3_O_CO2_O.atoms + HetSulfateRedofBiomass_SO4_O_CO2_O.atoms + HetSulfateRedofDOM_SO4_O_CO2_O.atoms + HetMethanogenesisofBiomass_Ox_O_CO2_O.atoms + HetMethanogenesisofDOM_Ox_O_CO2_O.atoms + MetMethaneOxid_O2_O_CO2_O.atoms - AutAssimCO2_CO2_O_Aut_O.atoms - AutAssimCO2_CO2_O_Ox_O.atoms;
N2_N.finalAtoms = N2_N.initialAtoms + HetDenitofBiomass_NO3_N_N2_N.atoms + HetDenitofDOM_NO3_N_N2_N.atoms;
HS_S.finalAtoms = HS_S.initialAtoms + HetAerobicofBiomass_Het_S_HS_S.atoms + HetAerobicofDOM_DOM_S_HS_S.atoms + HetDenitofBiomass_Het_S_HS_S.atoms + HetDenitofDOM_DOM_S_HS_S.atoms + HetSulfateRedofBiomass_Het_S_HS_S.atoms + HetSulfateRedofBiomass_SO4_S_HS_S.atoms + HetSulfateRedofDOM_DOM_S_HS_S.atoms + HetSulfateRedofDOM_SO4_S_HS_S.atoms + HetMethanogenesisofBiomass_Het_S_HS_S.atoms + HetMethanogenesisofDOM_DOM_S_HS_S.atoms - HetAssimHS_HS_S_Het_S.atoms - AutAssimHS_HS_S_Aut_S.atoms - MetAssimHS_HS_S_Met_S.atoms - AutSulfideOxidation_HS_S_SO4_S.atoms;
HS_H.finalAtoms = HS_H.initialAtoms + HetAerobicofBiomass_Hx_H_HS_H.atoms + HetAerobicofDOM_Hx_H_HS_H.atoms + HetDenitofBiomass_Hx_H_HS_H.atoms + HetDenitofDOM_Hx_H_HS_H.atoms + HetSulfateRedofBiomass_Hx_H_HS_H.atoms + HetSulfateRedofDOM_Hx_H_HS_H.atoms + HetMethanogenesisofBiomass_Hx_H_HS_H.atoms + HetMethanogenesisofDOM_Hx_H_HS_H.atoms - HetAssimHS_HS_H_Het_H.atoms - HetAssimHS_HS_H_Hx_H.atoms - AutAssimHS_HS_H_Aut_H.atoms - AutAssimHS_HS_H_Hx_H.atoms - MetAssimHS_HS_H_Met_H.atoms - MetAssimHS_HS_H_Hx_H.atoms - AutSulfideOxidation_HS_H_Hx_H.atoms;
Ox_O.finalAtoms = Ox_O.initialAtoms + AutAssimCO2_CO2_O_Ox_O.atoms + HetAssimNO3_NO3_O_Ox_O.atoms + AutAssimNO3_NO3_O_Ox_O.atoms + MetAssimNO3_NO3_O_Ox_O.atoms + HetAssimSO4_SO4_O_Ox_O.atoms + AutAssimSO4_SO4_O_Ox_O.atoms + MetAssimSO4_SO4_O_Ox_O.atoms + HetAerobicofBiomass_Het_O_Ox_O.atoms + HetAerobicofDOM_DOM_O_Ox_O.atoms + HetDenitofBiomass_Het_O_Ox_O.atoms + HetDenitofBiomass_NO3_O_Ox_O.atoms + HetDenitofDOM_DOM_O_Ox_O.atoms + HetDenitofDOM_NO3_O_Ox_O.atoms + HetSulfateRedofBiomass_Het_O_Ox_O.atoms + HetSulfateRedofDOM_DOM_O_Ox_O.atoms + HetMethanogenesisofBiomass_Het_O_Ox_O.atoms + HetMethanogenesisofDOM_DOM_O_Ox_O.atoms + AutNitrif_O2_O_Ox_O.atoms + MetMethaneOxid_O2_O_Ox_O.atoms - HetAssimO_Ox_O_Het_O.atoms - AutAssimO_Ox_O_Aut_O.atoms - MetAssimO_Ox_O_Met_O.atoms - HetMethanogenesisofBiomass_Ox_O_CO2_O.atoms - HetMethanogenesisofDOM_Ox_O_CO2_O.atoms;
Hx_H.finalAtoms = Hx_H.initialAtoms + MetAssimCH4_CH4_H_Hx_H.atoms + HetAssimNH4_NH4_H_Hx_H.atoms + AutAssimNH4_NH4_H_Hx_H.atoms + MetAssimNH4_NH4_H_Hx_H.atoms + HetAssimHS_HS_H_Hx_H.atoms + AutAssimHS_HS_H_Hx_H.atoms + MetAssimHS_HS_H_Hx_H.atoms + HetAerobicofBiomass_Het_H_Hx_H.atoms + HetAerobicofDOM_DOM_H_Hx_H.atoms + HetDenitofBiomass_Het_H_Hx_H.atoms + HetDenitofDOM_DOM_H_Hx_H.atoms + HetSulfateRedofBiomass_Het_H_Hx_H.atoms + HetSulfateRedofDOM_DOM_H_Hx_H.atoms + AutSulfideOxidation_HS_H_Hx_H.atoms + HetMethanogenesisofBiomass_Het_H_Hx_H.atoms + HetMethanogenesisofDOM_DOM_H_Hx_H.atoms + AutNitrif_NH4_H_Hx_H.atoms + MetMethaneOxid_CH4_H_Hx_H.atoms - HetAssimH_Hx_H_Het_H.atoms - AutAssimH_Hx_H_Aut_H.atoms - MetAssimH_Hx_H_Met_H.atoms - HetAerobicofBiomass_Hx_H_HS_H.atoms - HetAerobicofBiomass_Hx_H_NH4_H.atoms - HetAerobicofDOM_Hx_H_HS_H.atoms - HetAerobicofDOM_Hx_H_NH4_H.atoms - HetDenitofBiomass_Hx_H_NH4_H.atoms - HetDenitofBiomass_Hx_H_HS_H.atoms - HetDenitofDOM_Hx_H_NH4_H.atoms - HetDenitofDOM_Hx_H_HS_H.atoms - HetSulfateRedofBiomass_Hx_H_NH4_H.atoms - HetSulfateRedofBiomass_Hx_H_HS_H.atoms - HetSulfateRedofDOM_Hx_H_NH4_H.atoms - HetSulfateRedofDOM_Hx_H_HS_H.atoms - HetMethanogenesisofBiomass_Hx_H_CH4_H.atoms - HetMethanogenesisofBiomass_Hx_H_NH4_H.atoms - HetMethanogenesisofBiomass_Hx_H_HS_H.atoms - HetMethanogenesisofDOM_Hx_H_CH4_H.atoms - HetMethanogenesisofDOM_Hx_H_NH4_H.atoms - HetMethanogenesisofDOM_Hx_H_HS_H.atoms;
/***** Generally, Transfers out of each Pool must be less than the Pool.initialAtoms (Exprsn. 7) *****/
Het_C.initialAtoms >= HetAerobicofBiomass_Het_C_CO2_C.atoms + HetDenitofBiomass_Het_C_CO2_C.atoms + HetSulfateRedofBiomass_Het_C_CO2_C.atoms + HetMethanogenesisofBiomass_Het_C_CO2_C.atoms + HetMethanogenesisofBiomass_Het_C_CH4_C.atoms + HetDecay_Het_C_DOM_C.atoms;
Het_N.initialAtoms >= HetAerobicofBiomass_Het_N_NH4_N.atoms + HetDenitofBiomass_Het_N_NH4_N.atoms + HetSulfateRedofBiomass_Het_N_NH4_N.atoms + HetMethanogenesisofBiomass_Het_N_NH4_N.atoms + HetDecay_Het_N_DOM_N.atoms;
Het_O.initialAtoms >= HetAerobicofBiomass_Het_O_Ox_O.atoms + HetDenitofBiomass_Het_O_Ox_O.atoms + HetSulfateRedofBiomass_Het_O_Ox_O.atoms + HetMethanogenesisofBiomass_Het_O_Ox_O.atoms + HetDecay_Het_O_DOM_O.atoms;
Het_S.initialAtoms >= HetAerobicofBiomass_Het_S_HS_S.atoms + HetDenitofBiomass_Het_S_HS_S.atoms + HetSulfateRedofBiomass_Het_S_HS_S.atoms + HetMethanogenesisofBiomass_Het_S_HS_S.atoms + HetDecay_Het_S_DOM_S.atoms;
Het_H.initialAtoms >= HetAerobicofBiomass_Het_H_Hx_H.atoms + HetDenitofBiomass_Het_H_Hx_H.atoms + HetSulfateRedofBiomass_Het_H_Hx_H.atoms + HetMethanogenesisofBiomass_Het_H_Hx_H.atoms + HetDecay_Het_H_DOM_H.atoms;
Aut_C.initialAtoms >= AutDecay_Aut_C_DOM_C.atoms;
Aut_N.initialAtoms >= AutDecay_Aut_N_DOM_N.atoms;
Aut_O.initialAtoms >= AutDecay_Aut_O_DOM_O.atoms;
Aut_S.initialAtoms >= AutDecay_Aut_S_DOM_S.atoms;
Aut_H.initialAtoms >= AutDecay_Aut_H_DOM_H.atoms;
Met_C.initialAtoms >= MetDecay_Met_C_DOM_C.atoms;
Met_N.initialAtoms >= MetDecay_Met_N_DOM_N.atoms;
Met_O.initialAtoms >= MetDecay_Met_O_DOM_O.atoms;
Met_S.initialAtoms >= MetDecay_Met_S_DOM_S.atoms;
Met_H.initialAtoms >= MetDecay_Met_H_DOM_H.atoms;
DOM_C.initialAtoms >= HetAssimDOM_DOM_C_Het_C.atoms + HetAerobicofDOM_DOM_C_CO2_C.atoms + HetDenitofDOM_DOM_C_CO2_C.atoms + HetSulfateRedofDOM_DOM_C_CO2_C.atoms + HetMethanogenesisofDOM_DOM_C_CO2_C.atoms + HetMethanogenesisofDOM_DOM_C_CH4_C.atoms;
DOM_N.initialAtoms >= HetAssimDOM_DOM_N_Het_N.atoms + HetAerobicofDOM_DOM_N_NH4_N.atoms + HetDenitofDOM_DOM_N_NH4_N.atoms + HetSulfateRedofDOM_DOM_N_NH4_N.atoms + HetMethanogenesisofDOM_DOM_N_NH4_N.atoms;
DOM_O.initialAtoms >= HetAssimDOM_DOM_O_Het_O.atoms + HetAerobicofDOM_DOM_O_Ox_O.atoms + HetDenitofDOM_DOM_O_Ox_O.atoms + HetSulfateRedofDOM_DOM_O_Ox_O.atoms + HetMethanogenesisofDOM_DOM_O_Ox_O.atoms;
DOM_S.initialAtoms >= HetAssimDOM_DOM_S_Het_S.atoms + HetAerobicofDOM_DOM_S_HS_S.atoms + HetDenitofDOM_DOM_S_HS_S.atoms + HetSulfateRedofDOM_DOM_S_HS_S.atoms + HetMethanogenesisofDOM_DOM_S_HS_S.atoms;
DOM_H.initialAtoms >= HetAssimDOM_DOM_H_Het_H.atoms + HetAerobicofDOM_DOM_H_Hx_H.atoms + HetDenitofDOM_DOM_H_Hx_H.atoms + HetSulfateRedofDOM_DOM_H_Hx_H.atoms + HetMethanogenesisofDOM_DOM_H_Hx_H.atoms;
CH4_C.initialAtoms >= MetAssimCH4_CH4_C_Met_C.atoms + MetMethaneOxid_CH4_C_CO2_C.atoms;
CH4_H.initialAtoms >= MetAssimCH4_CH4_H_Met_H.atoms + MetAssimCH4_CH4_H_Hx_H.atoms + MetMethaneOxid_CH4_H_Hx_H.atoms;
NH4_N.initialAtoms >= AutAssimNH4_NH4_N_Aut_N.atoms + MetAssimNH4_NH4_N_Met_N.atoms + AutNitrif_NH4_N_NO3_N.atoms;
NH4_H.initialAtoms >= AutAssimNH4_NH4_H_Aut_H.atoms + AutAssimNH4_NH4_H_Hx_H.atoms + MetAssimNH4_NH4_H_Met_H.atoms + MetAssimNH4_NH4_H_Hx_H.atoms + AutNitrif_NH4_H_Hx_H.atoms;
NO3_N.initialAtoms >= HetAssimNO3_NO3_N_Het_N.atoms + AutAssimNO3_NO3_N_Aut_N.atoms + MetAssimNO3_NO3_N_Met_N.atoms + HetDenitofBiomass_NO3_N_N2_N.atoms + HetDenitofDOM_NO3_N_N2_N.atoms;
NO3_O.initialAtoms >= HetAssimNO3_NO3_O_Het_O.atoms + HetAssimNO3_NO3_O_Ox_O.atoms + AutAssimNO3_NO3_O_Aut_O.atoms + AutAssimNO3_NO3_O_Ox_O.atoms + MetAssimNO3_NO3_O_Met_O.atoms + MetAssimNO3_NO3_O_Ox_O.atoms + HetDenitofBiomass_NO3_O_CO2_O.atoms + HetDenitofBiomass_NO3_O_Ox_O.atoms + HetDenitofDOM_NO3_O_CO2_O.atoms + HetDenitofDOM_NO3_O_Ox_O.atoms;
O2_O.initialAtoms >= HetAerobicofBiomass_O2_O_CO2_O.atoms + HetAerobicofDOM_O2_O_CO2_O.atoms + AutSulfideOxidation_O2_O_SO4_O.atoms + AutNitrif_O2_O_NO3_O.atoms + AutNitrif_O2_O_Ox_O.atoms + MetMethaneOxid_O2_O_CO2_O.atoms + MetMethaneOxid_O2_O_Ox_O.atoms;
SO4_S.initialAtoms >= HetAssimSO4_SO4_S_Het_S.atoms + AutAssimSO4_SO4_S_Aut_S.atoms + MetAssimSO4_SO4_S_Met_S.atoms + HetSulfateRedofBiomass_SO4_S_HS_S.atoms + HetSulfateRedofDOM_SO4_S_HS_S.atoms;
SO4_O.initialAtoms >= HetAssimSO4_SO4_O_Het_O.atoms + HetAssimSO4_SO4_O_Ox_O.atoms + AutAssimSO4_SO4_O_Aut_O.atoms + AutAssimSO4_SO4_O_Ox_O.atoms + MetAssimSO4_SO4_O_Met_O.atoms + MetAssimSO4_SO4_O_Ox_O.atoms + HetSulfateRedofBiomass_SO4_O_CO2_O.atoms + HetSulfateRedofDOM_SO4_O_CO2_O.atoms;
CO2_C.initialAtoms >= AutAssimCO2_CO2_C_Aut_C.atoms;
CO2_O.initialAtoms >= AutAssimCO2_CO2_O_Aut_O.atoms + AutAssimCO2_CO2_O_Ox_O.atoms;
HS_S.initialAtoms >= AutAssimHS_HS_S_Aut_S.atoms + MetAssimHS_HS_S_Met_S.atoms + AutSulfideOxidation_HS_S_SO4_S.atoms;
HS_H.initialAtoms >= AutAssimHS_HS_H_Aut_H.atoms + AutAssimHS_HS_H_Hx_H.atoms + MetAssimHS_HS_H_Met_H.atoms + MetAssimHS_HS_H_Hx_H.atoms + AutSulfideOxidation_HS_H_Hx_H.atoms;
/******************** ENERGETIC CONSTRAINTS ********************/
/***** Maintenance respiration energy is proportional to the biomass of each organism type (Exprsn. 8) *****/
Het.respirationEnergy = -6.792e-05 Het.finalMolecules;
Aut.respirationEnergy = -6.792e-05 Aut.finalMolecules;
Met.respirationEnergy = -6.792e-05 Met.finalMolecules;
/***** For each organism type, the total energy associated with assimilatory and dissimilatory Processes must equal the sum of the Process.netEnergy for all Processes (Exprsn. 9) *****/
Het.totalProcessEnergy = HetAssimDOM.netEnergy + HetAssimNO3.netEnergy + HetAssimNH4.netEnergy + HetAssimSO4.netEnergy + HetAssimHS.netEnergy + HetAerobicofBiomass.netEnergy + HetAerobicofDOM.netEnergy + HetDenitofBiomass.netEnergy + HetDenitofDOM.netEnergy + HetSulfateRedofBiomass.netEnergy + HetSulfateRedofDOM.netEnergy + HetMethanogenesisofBiomass.netEnergy + HetMethanogenesisofDOM.netEnergy;
Aut.totalProcessEnergy = AutAssimCO2.netEnergy + AutAssimNO3.netEnergy + AutAssimNH4.netEnergy + AutAssimSO4.netEnergy + AutAssimHS.netEnergy + AutSulfideOxidation.netEnergy + AutNitrif.netEnergy;
Met.totalProcessEnergy = MetAssimCH4.netEnergy + MetAssimNO3.netEnergy + MetAssimNH4.netEnergy + MetAssimSO4.netEnergy + MetAssimHS.netEnergy + MetMethaneOxid.netEnergy;
/***** Organisms must meet their respiratory energy demands (Exprsn. 10) *****/
0 = Het.respirationEnergy + Het.totalProcessEnergy;
0 = Aut.respirationEnergy + Aut.totalProcessEnergy;
0 = Met.respirationEnergy + Met.totalProcessEnergy;
